!B3LYP 6-31G(d,p) OPT FREQ
%maxcore 4000
%pal
 nprocs 8
end
* XYZ 0  1
C     -3.55212    1.46604    1.17149
O     -4.70479    1.54236    1.48219
O     -2.39946    1.38979    0.86079
*

