!B3LYP 6-31G(d,p) OPT FREQ
%maxcore 4000
%pal
 nprocs 8
end
%geom
    Calc_Hess true # Request an exact Hessian in the first optimization step
    NumHess true #  Request the numerical exact Hessian
    Recalc_Hess 5 # Recalculate the exact Hessian every 5 steps.
end
* XYZ 0  1
C     -3.11201    0.96828   -0.00869
C     -1.93741    0.85360   -0.05035
C     -4.41197    1.09486    0.03759
C     -0.63748    0.72625   -0.09649
H     -4.94731    1.07023    0.98331
H     -0.05923    0.52024    0.80059
H     -5.00355    1.16897   -0.87130
H     -0.10061    0.76494   -1.04087
*

