!B3LYP 6-31G(d,p) OPT FREQ
%maxcore 4000
%pal
 nprocs 8
end
%geom
    Calc_Hess true # Request an exact Hessian in the first optimization step
    NumHess true #  Request the numerical exact Hessian
    Recalc_Hess 5 # Recalculate the exact Hessian every 5 steps.
end
* XYZ 0  3
C     -2.09296    0.61368   -0.00000
C     -0.76226    0.69120   -0.00009
C     -3.59163    0.52324   -0.00003
C      0.74934    0.78164   -0.00014
H     -4.18835    0.45776   -0.71967
H     -4.16909    0.40728    0.78815
C      1.57619    2.06068   -0.00013
O      2.94568    1.71185   -0.00016
H      1.06078    0.24809    0.87349
H      0.94925    0.43911   -0.99392
O      1.09817    3.26221   -0.00016
*

