!B3LYP 6-31G(d,p) OPT FREQ
%maxcore 4000
%pal
 nprocs 2
end
%scf
   brokensym 1,1
   maxiter 200
   DIISMaxEq 10
   directresetfreq 10
end
* XYZ 0  3
H      1.21940   -0.16520    2.16000
C      0.68250   -0.09240    1.20870
C     -0.70750   -0.03520    1.19730
H     -1.26440   -0.06300    2.13930
C     -1.38980    0.05720   -0.01140
C     -0.68240    0.09250   -1.20880
H     -1.21940    0.16520   -2.15990
C      0.70750    0.03520   -1.19730
H      1.26410    0.06280   -2.13950
C      1.38990   -0.05720    0.01140
C      4.67290    0.11760   -1.82554
H      4.95560    0.17165   -2.94516
H      5.51046    0.17414   -1.10024
C      3.30803   -0.03307   -1.39625
C      2.78867   -0.11475    0.02304
H      2.46131   -0.08550   -2.24857
C      3.59363   -0.08212    1.29550
C      5.03424   -0.58600    1.17715
H      5.42412   -0.94369    0.20211
H      5.61949   -0.55519    2.13236
H      3.13317    0.29110    2.23767
C     -4.63988   -0.14442    1.85516
H     -4.92306   -0.09674    2.97494
H     -5.44900   -0.42934    1.15166
C     -3.30368    0.13380    1.40015
C     -2.78857    0.11462   -0.02291
H     -2.48715    0.43596    2.22967
C     -3.58452    0.30599   -1.28704
C     -5.02832    0.77577   -1.09206
H     -5.42666    0.95302   -0.07198
H     -5.60676    0.91333   -2.04200
H     -3.11580    0.10771   -2.27698
*

