!B3LYP 6-31G(d,p) OPT FREQ
%maxcore 4000
%pal
 nprocs 2
end
%scf
   brokensym 1,1
   maxiter 200
   DIISMaxEq 10
   directresetfreq 10
end
* XYZ 0  3
H      1.21940   -0.16520    2.16000
C      0.68250   -0.09240    1.20870
C     -0.70750   -0.03520    1.19730
H     -1.26440   -0.06300    2.13930
C     -1.38980    0.05720   -0.01140
C     -0.68240    0.09250   -1.20880
H     -1.21940    0.16520   -2.15990
C      0.70750    0.03520   -1.19730
H      1.26410    0.06280   -2.13950
C      1.38990   -0.05720    0.01140
C      2.78867   -0.11475    0.02304
H      3.41045   -0.08498   -0.78379
H      3.14498   -0.23900    1.06629
C     -2.78857    0.11462   -0.02291
H     -5.54238    0.20043    0.29994
H     -3.27196    0.20881   -1.01701
C     -3.55759    0.07170    1.19226
C     -5.06350    0.12053    1.33585
H     -2.95385   -0.03208    2.22709
C     -5.85825    0.23220    2.61025
C     -7.35921    0.47414    2.43190
H     -7.79639    0.55618    1.41564
H     -7.93604    0.55477    3.38933
H     -5.34881    0.13906    3.59555
*

