!B3LYP 6-31G(d,p) OPT FREQ
%maxcore 4000
%pal
 nprocs 4
end
* XYZ 0  1
C     -4.92596    0.37623   -0.00779
C     -3.61900    0.39164   -0.00207
H     -5.50121    1.08275    0.58525
H     -5.47892   -0.36106   -0.58437
C     -2.31199    0.40682    0.00361
H     -1.75122    0.99208   -0.72084
H     -1.74413   -0.17461    0.72558
*

