!B3LYP 6-31G(d,p) OPT FREQ
%maxcore 4000
%pal
 nprocs 2
end
%scf
   brokensym 1,1
   maxiter 200
   DIISMaxEq 10
   directresetfreq 10
end
* XYZ 0  3
H      1.21940   -0.16520    2.16000
C      0.68250   -0.09240    1.20870
C     -0.70750   -0.03520    1.19730
H     -1.26440   -0.06300    2.13930
C     -1.38980    0.05720   -0.01140
C     -0.68240    0.09250   -1.20880
H     -1.21940    0.16520   -2.15990
C      0.70750    0.03520   -1.19730
H      1.26410    0.06280   -2.13950
C      1.38990   -0.05720    0.01140
C      2.78867   -0.11475    0.02304
H      5.53487   -0.24630    0.39196
H      3.29380   -0.07871   -0.96403
C      3.53087   -0.23249    1.24988
C      5.03335   -0.30200    1.41871
H      2.90452   -0.26417    2.27595
H      5.58401   -0.46291    2.37815
C     -2.78857    0.11462   -0.02291
H     -5.53459    0.25181   -0.39121
H     -3.29400    0.06893    0.96361
C     -3.53181    0.20986   -1.25108
C     -5.03415    0.28327   -1.41951
H     -2.90502    0.25490   -2.27637
H     -5.59127    0.28726   -2.38866
*

