%nprocshared=1
%mem=2gb
%chk=/gpfs/home/gdb20/code/input_macros/temp/oh_radical_m06-2x_6-311++Gdp/oh_radical_m06-2x_6-311++Gdp.chk
#um062x/6-31g(d,p) OPT FREQ

created with so and so tool

0 2
O -0.282 0.618 0.000
H -1.129 0.606 0.000


