!B3LYP 6-31G(d,p) OPT FREQ
%maxcore 4000
%pal
 nprocs 2
end
* XYZ 0  1
H      1.40320   -0.21848    2.15582
C      0.85210   -0.12367    1.22336
C     -0.54389   -0.09096    1.22818
H     -1.06968    0.21563   -2.11853
C     -1.22636    0.03174    0.01651
C     -0.35932   -0.43957    4.97033
C     -0.52239    0.12048   -1.18363
H      0.99094    0.25206   -3.35180
C      0.87324    0.08753   -1.18781
H      2.64217   -0.06306    0.04360
C      1.55540   -0.03534    0.02441
C      1.61675    0.18193   -2.46280
C      3.02780    0.19997   -2.70842
H      0.08687   -0.54323    5.93302
C      4.23964    0.21010   -2.86622
H     -2.31339    0.05876    0.00172
C     -1.29378   -0.18546    2.49947
C     -0.81620   -0.32210    3.84322
H     -2.37774   -0.16261    2.39273
H      5.30209    0.21506   -2.95258
*

