!B3LYP 6-31G(d,p) OPT FREQ
%maxcore 4000
%pal
 nprocs 4
end
* XYZ 0  1
C     -5.03860    0.36821   -0.00000
C     -3.65622    0.39404   -0.00000
H     -5.58697    1.07823    0.58314
H     -5.56005   -0.36182   -0.58315
H     -3.13477    1.12407    0.58314
H     -3.10785   -0.31598   -0.58315
*

