!R2SCAN3C OPT FREQ
%maxcore 4000
%pal
 nprocs 8
end
%scf
   maxiter 200
   DIISMaxEq 10
   directresetfreq 10
end
%geom
    Calc_Hess true # Request an exact Hessian in the first optimization step
    NumHess true #  Request the numerical exact Hessian
    Recalc_Hess 5 # Recalculate the exact Hessian every 5 steps.
end
* XYZ 0  1
H      1.21940   -0.16520    2.16000
C      0.68250   -0.09240    1.20870
C     -0.70750   -0.03520    1.19730
H     -1.26440   -0.06300    2.13930
C     -1.38980    0.05720   -0.01140
C     -0.68240    0.09250   -1.20880
H     -1.21940    0.16520   -2.15990
C      0.70750    0.03520   -1.19730
H      1.26410    0.06280   -2.13950
C      1.38990   -0.05720    0.01140
C      2.78867   -0.11475    0.02304
H      3.39287   -0.18363    0.84075
H      3.17068   -0.03541   -1.01549
C     -2.78858    0.11462   -0.02291
H     -3.40995    0.09297    0.78449
H     -3.14854    0.15144   -1.07164
*

