%nprocshared=1
%mem=2gb
%chk=./temp/oh_radical_m06-2x_6-311++Gdp/oh_radical_m06-2x_6-311++Gdp.chk
#um06-2x 6-31g(d,p) OPT FREQ

created with so and so tool

0 1
O -1.682 2.047 0.000
O -0.129 1.364 0.000
H -2.824 1.447 0.000
H 0.9176 2.200 0.000
