!B3LYP 6-31G(d,p) OPT FREQ
%maxcore 4000
%pal
 nprocs 2
end
* XYZ 0  1
H      1.21940   -0.16520    2.16000
C      0.68250   -0.09240    1.20870
C     -0.70750   -0.03520    1.19730
H     -1.26440   -0.06300    2.13930
C     -1.38980    0.05720   -0.01140
C     -0.68240    0.09250   -1.20880
H     -1.21940    0.16520   -2.15990
C      0.70750    0.03520   -1.19730
H      1.26410    0.06280   -2.13950
C      1.38990   -0.05720    0.01140
C      2.78867   -0.11475    0.02304
H      3.41102   -0.07068   -0.78268
H      3.14424   -0.25732    1.06419
C     -4.63999    0.14260   -1.91845
H     -4.90522    0.05488   -3.04020
H     -5.48343    0.33506   -1.22395
C     -3.28466    0.02604   -1.45009
C     -2.78857    0.11462   -0.02291
H     -2.43066   -0.18346   -2.27042
C     -3.61424    0.08800    1.23636
C     -4.96443   -0.62450    1.12425
H     -5.27966   -1.07904    0.16266
H     -5.56631   -0.63552    2.06952
H     -3.23085    0.56677    2.16522
*

